min: c;

c = 3.82743988189856 * u5_t4_h2 + 3.82743988189856 * u5_t7_h2 + 2.99090789937186 * u5_t4_h3 + 2.99090789937186 * u5_t7_h3 + 2.87490514726069 * u5_t1_h4 + 2.87490514726069 * u5_t3_h4 + 2.87490514726069 * u5_t4_h4 + 2.87490514726069 * u5_t7_h4 + 3.14867927140081 * u5_t1_h5 + 3.14867927140081 * u5_t3_h5 + 3.14867927140081 * u5_t4_h5 + 3.14867927140081 * u5_t7_h5 + 4.01199603851974 * u5_t1_h6 + 4.01199603851974 * u5_t3_h6 + 4.01199603851974 * u5_t4_h6 + 4.01199603851974 * u5_t6_h6 + 4.01199603851974 * u5_t7_h6 + 4.2841049057867 * u5_t1_h7 + 4.2841049057867 * u5_t3_h7 + 4.2841049057867 * u5_t4_h7 + 4.2841049057867 * u5_t6_h7 + 5.25603420354519 * u5_t1_h8 + 5.25603420354519 * u5_t3_h8 + 5.25603420354519 * u5_t4_h8 + 5.25603420354519 * u5_t6_h8 + 5.15850277359381 * u5_t1_h9 + 5.15850277359381 * u5_t3_h9 + 5.15850277359381 * u5_t4_h9 + 5.15850277359381 * u5_t6_h9 + 5.08633459122471 * u5_t1_h10 + 5.08633459122471 * u5_t3_h10 + 5.08633459122471 * u5_t4_h10 + 5.08633459122471 * u5_t6_h10 + 4.2491720723628 * u5_t1_h11 + 4.2491720723628 * u5_t3_h11 + 4.2491720723628 * u5_t4_h11 + 4.2491720723628 * u5_t6_h11 + 5.75163218230343 * u5_t1_h12 + 5.75163218230343 * u5_t3_h12 + 5.75163218230343 * u5_t4_h12 + 5.75163218230343 * u5_t6_h12 + 4.59943409338097 * u5_t1_h13 + 4.59943409338097 * u5_t3_h13 + 4.59943409338097 * u5_t4_h13 + 4.59943409338097 * u5_t6_h13 + 4.59943409338097 * u5_t8_h13 + 5.48865583131397 * u5_t1_h14 + 5.48865583131397 * u5_t3_h14 + 5.48865583131397 * u5_t4_h14 + 5.48865583131397 * u5_t6_h14 + 5.48865583131397 * u5_t8_h14 + 6.36973084920262 * u5_t1_h15 + 6.36973084920262 * u5_t3_h15 + 6.36973084920262 * u5_t4_h15 + 6.36973084920262 * u5_t6_h15 + 6.36973084920262 * u5_t8_h15 + 6.36973084920262 * u5_t9_h15 + 5.57317327972904 * u5_t1_h16 + 5.57317327972904 * u5_t3_h16 + 5.57317327972904 * u5_t4_h16 + 5.57317327972904 * u5_t5_h16 + 5.57317327972904 * u5_t6_h16 + 5.57317327972904 * u5_t8_h16 + 5.57317327972904 * u5_t9_h16 + 6.6033270618101 * u5_t1_h17 + 6.6033270618101 * u5_t5_h17 + 6.6033270618101 * u5_t6_h17 + 6.6033270618101 * u5_t8_h17 + 6.6033270618101 * u5_t9_h17 + 6.6033270618101 * u5_t10_h17 + 6.50219764557237 * u5_t1_h18 + 6.50219764557237 * u5_t2_h18 + 6.50219764557237 * u5_t5_h18 + 6.50219764557237 * u5_t6_h18 + 6.50219764557237 * u5_t9_h18 + 6.50219764557237 * u5_t10_h18 + 5.99224160429987 * u5_t1_h19 + 5.99224160429987 * u5_t2_h19 + 5.99224160429987 * u5_t5_h19 + 5.99224160429987 * u5_t9_h19 + 5.99224160429987 * u5_t10_h19 + 5.41230433115191 * u5_t1_h20 + 5.41230433115191 * u5_t2_h20 + 5.41230433115191 * u5_t5_h20 + 5.41230433115191 * u5_t9_h20 + 5.41230433115191 * u5_t10_h20 + 4.78940650285268 * u5_t2_h21 + 4.78940650285268 * u5_t5_h21 + 4.78940650285268 * u5_t9_h21 + 4.78940650285268 * u5_t10_h21 + 6.02077312268415 * u5_t2_h22 + 6.02077312268415 * u5_t5_h22 + 6.02077312268415 * u5_t9_h22 + 6.02077312268415 * u5_t10_h22 + 5.52628429035552 * u5_t5_h23 + 5.52628429035552 * u5_t9_h23 + 5.52628429035552 * u5_t10_h23;
0 <= u5_t1_h4 <= 1;
0 <= u5_t1_h5 <= 1;
0 <= u5_t1_h6 <= 1;
0 <= u5_t1_h7 <= 1;
0 <= u5_t1_h8 <= 1;
0 <= u5_t1_h9 <= 1;
0 <= u5_t1_h10 <= 1;
0 <= u5_t1_h11 <= 1;
0 <= u5_t1_h12 <= 1;
0 <= u5_t1_h13 <= 1;
0 <= u5_t1_h14 <= 1;
0 <= u5_t1_h15 <= 1;
0 <= u5_t1_h16 <= 1;
0 <= u5_t1_h17 <= 1;
0 <= u5_t1_h18 <= 1;
0 <= u5_t1_h19 <= 1;
0 <= u5_t1_h20 <= 1;
u5_t1_h4 + u5_t1_h5 + u5_t1_h6 + u5_t1_h7 + u5_t1_h8 + u5_t1_h9 + u5_t1_h10 + u5_t1_h11 + u5_t1_h12 + u5_t1_h13 + u5_t1_h14 + u5_t1_h15 + u5_t1_h16 + u5_t1_h17 + u5_t1_h18 + u5_t1_h19 + u5_t1_h20 = 1;
0 <= u5_t2_h18 <= 1;
0 <= u5_t2_h19 <= 1;
0 <= u5_t2_h20 <= 1;
0 <= u5_t2_h21 <= 1;
0 <= u5_t2_h22 <= 1;
u5_t2_h18 + u5_t2_h19 + u5_t2_h20 + u5_t2_h21 + u5_t2_h22 = 3;
0 <= u5_t3_h4 <= 1;
0 <= u5_t3_h5 <= 1;
0 <= u5_t3_h6 <= 1;
0 <= u5_t3_h7 <= 1;
0 <= u5_t3_h8 <= 1;
0 <= u5_t3_h9 <= 1;
0 <= u5_t3_h10 <= 1;
0 <= u5_t3_h11 <= 1;
0 <= u5_t3_h12 <= 1;
0 <= u5_t3_h13 <= 1;
0 <= u5_t3_h14 <= 1;
0 <= u5_t3_h15 <= 1;
0 <= u5_t3_h16 <= 1;
u5_t3_h4 + u5_t3_h5 + u5_t3_h6 + u5_t3_h7 + u5_t3_h8 + u5_t3_h9 + u5_t3_h10 + u5_t3_h11 + u5_t3_h12 + u5_t3_h13 + u5_t3_h14 + u5_t3_h15 + u5_t3_h16 = 1;
0 <= u5_t4_h2 <= 1;
0 <= u5_t4_h3 <= 1;
0 <= u5_t4_h4 <= 1;
0 <= u5_t4_h5 <= 1;
0 <= u5_t4_h6 <= 1;
0 <= u5_t4_h7 <= 1;
0 <= u5_t4_h8 <= 1;
0 <= u5_t4_h9 <= 1;
0 <= u5_t4_h10 <= 1;
0 <= u5_t4_h11 <= 1;
0 <= u5_t4_h12 <= 1;
0 <= u5_t4_h13 <= 1;
0 <= u5_t4_h14 <= 1;
0 <= u5_t4_h15 <= 1;
0 <= u5_t4_h16 <= 1;
u5_t4_h2 + u5_t4_h3 + u5_t4_h4 + u5_t4_h5 + u5_t4_h6 + u5_t4_h7 + u5_t4_h8 + u5_t4_h9 + u5_t4_h10 + u5_t4_h11 + u5_t4_h12 + u5_t4_h13 + u5_t4_h14 + u5_t4_h15 + u5_t4_h16 = 3;
0 <= u5_t5_h16 <= 1;
0 <= u5_t5_h17 <= 1;
0 <= u5_t5_h18 <= 1;
0 <= u5_t5_h19 <= 1;
0 <= u5_t5_h20 <= 1;
0 <= u5_t5_h21 <= 1;
0 <= u5_t5_h22 <= 1;
0 <= u5_t5_h23 <= 1;
u5_t5_h16 + u5_t5_h17 + u5_t5_h18 + u5_t5_h19 + u5_t5_h20 + u5_t5_h21 + u5_t5_h22 + u5_t5_h23 = 2;
0 <= u5_t6_h6 <= 1;
0 <= u5_t6_h7 <= 1;
0 <= u5_t6_h8 <= 1;
0 <= u5_t6_h9 <= 1;
0 <= u5_t6_h10 <= 1;
0 <= u5_t6_h11 <= 1;
0 <= u5_t6_h12 <= 1;
0 <= u5_t6_h13 <= 1;
0 <= u5_t6_h14 <= 1;
0 <= u5_t6_h15 <= 1;
0 <= u5_t6_h16 <= 1;
0 <= u5_t6_h17 <= 1;
0 <= u5_t6_h18 <= 1;
u5_t6_h6 + u5_t6_h7 + u5_t6_h8 + u5_t6_h9 + u5_t6_h10 + u5_t6_h11 + u5_t6_h12 + u5_t6_h13 + u5_t6_h14 + u5_t6_h15 + u5_t6_h16 + u5_t6_h17 + u5_t6_h18 = 2;
0 <= u5_t7_h2 <= 1;
0 <= u5_t7_h3 <= 1;
0 <= u5_t7_h4 <= 1;
0 <= u5_t7_h5 <= 1;
0 <= u5_t7_h6 <= 1;
u5_t7_h2 + u5_t7_h3 + u5_t7_h4 + u5_t7_h5 + u5_t7_h6 = 1;
0 <= u5_t8_h13 <= 1;
0 <= u5_t8_h14 <= 1;
0 <= u5_t8_h15 <= 1;
0 <= u5_t8_h16 <= 1;
0 <= u5_t8_h17 <= 1;
u5_t8_h13 + u5_t8_h14 + u5_t8_h15 + u5_t8_h16 + u5_t8_h17 = 3;
0 <= u5_t9_h15 <= 1;
0 <= u5_t9_h16 <= 1;
0 <= u5_t9_h17 <= 1;
0 <= u5_t9_h18 <= 1;
0 <= u5_t9_h19 <= 1;
0 <= u5_t9_h20 <= 1;
0 <= u5_t9_h21 <= 1;
0 <= u5_t9_h22 <= 1;
0 <= u5_t9_h23 <= 1;
u5_t9_h15 + u5_t9_h16 + u5_t9_h17 + u5_t9_h18 + u5_t9_h19 + u5_t9_h20 + u5_t9_h21 + u5_t9_h22 + u5_t9_h23 = 1;
0 <= u5_t10_h17 <= 1;
0 <= u5_t10_h18 <= 1;
0 <= u5_t10_h19 <= 1;
0 <= u5_t10_h20 <= 1;
0 <= u5_t10_h21 <= 1;
0 <= u5_t10_h22 <= 1;
0 <= u5_t10_h23 <= 1;
u5_t10_h17 + u5_t10_h18 + u5_t10_h19 + u5_t10_h20 + u5_t10_h21 + u5_t10_h22 + u5_t10_h23 = 1;
